
n_res = 8;
rcap = [33, 37, 40, 38, 1394, 1334, 1227, 1277];
rtype = [1, 1, 1, 1, 2, 2, 2, 2];
n_tasks = 100;
modes =  [{1, 2, 3, 4, 5, 6}, {7, 8, 9, 10, 11, 12}, {13, 14, 15, 16, 17, 18}, {19, 20, 21, 22, 23, 24}, {25, 26, 27, 28, 29, 30}, {31, 32, 33, 34, 35, 36}, {37, 38, 39, 40, 41, 42}, {43, 44, 45, 46, 47, 48}, {49, 50, 51, 52, 53, 54}, {55, 56, 57, 58, 59, 60}, {61, 62, 63, 64, 65, 66}, {67, 68, 69, 70, 71, 72}, {73, 74, 75, 76, 77, 78}, {79, 80, 81, 82, 83, 84}, {85, 86, 87, 88, 89, 90}, {91, 92, 93, 94, 95, 96}, {97, 98, 99, 100, 101, 102}, {103, 104, 105, 106, 107, 108}, {109, 110, 111, 112, 113, 114}, {115, 116, 117, 118, 119, 120}, {121, 122, 123, 124, 125, 126}, {127, 128, 129, 130, 131, 132}, {133, 134, 135, 136, 137, 138}, {139, 140, 141, 142, 143, 144}, {145, 146, 147, 148, 149, 150}, {151, 152, 153, 154, 155, 156}, {157, 158, 159, 160, 161, 162}, {163, 164, 165, 166, 167, 168}, {169, 170, 171, 172, 173, 174}, {175, 176, 177, 178, 179, 180}, {181, 182, 183, 184, 185, 186}, {187, 188, 189, 190, 191, 192}, {193, 194, 195, 196, 197, 198}, {199, 200, 201, 202, 203, 204}, {205, 206, 207, 208, 209, 210}, {211, 212, 213, 214, 215, 216}, {217, 218, 219, 220, 221, 222}, {223, 224, 225, 226, 227, 228}, {229, 230, 231, 232, 233, 234}, {235, 236, 237, 238, 239, 240}, {241, 242, 243, 244, 245, 246}, {247, 248, 249, 250, 251, 252}, {253, 254, 255, 256, 257, 258}, {259, 260, 261, 262, 263, 264}, {265, 266, 267, 268, 269, 270}, {271, 272, 273, 274, 275, 276}, {277, 278, 279, 280, 281, 282}, {283, 284, 285, 286, 287, 288}, {289, 290, 291, 292, 293, 294}, {295, 296, 297, 298, 299, 300}, {301, 302, 303, 304, 305, 306}, {307, 308, 309, 310, 311, 312}, {313, 314, 315, 316, 317, 318}, {319, 320, 321, 322, 323, 324}, {325, 326, 327, 328, 329, 330}, {331, 332, 333, 334, 335, 336}, {337, 338, 339, 340, 341, 342}, {343, 344, 345, 346, 347, 348}, {349, 350, 351, 352, 353, 354}, {355, 356, 357, 358, 359, 360}, {361, 362, 363, 364, 365, 366}, {367, 368, 369, 370, 371, 372}, {373, 374, 375, 376, 377, 378}, {379, 380, 381, 382, 383, 384}, {385, 386, 387, 388, 389, 390}, {391, 392, 393, 394, 395, 396}, {397, 398, 399, 400, 401, 402}, {403, 404, 405, 406, 407, 408}, {409, 410, 411, 412, 413, 414}, {415, 416, 417, 418, 419, 420}, {421, 422, 423, 424, 425, 426}, {427, 428, 429, 430, 431, 432}, {433, 434, 435, 436, 437, 438}, {439, 440, 441, 442, 443, 444}, {445, 446, 447, 448, 449, 450}, {451, 452, 453, 454, 455, 456}, {457, 458, 459, 460, 461, 462}, {463, 464, 465, 466, 467, 468}, {469, 470, 471, 472, 473, 474}, {475, 476, 477, 478, 479, 480}, {481, 482, 483, 484, 485, 486}, {487, 488, 489, 490, 491, 492}, {493, 494, 495, 496, 497, 498}, {499, 500, 501, 502, 503, 504}, {505, 506, 507, 508, 509, 510}, {511, 512, 513, 514, 515, 516}, {517, 518, 519, 520, 521, 522}, {523, 524, 525, 526, 527, 528}, {529, 530, 531, 532, 533, 534}, {535, 536, 537, 538, 539, 540}, {541, 542, 543, 544, 545, 546}, {547, 548, 549, 550, 551, 552}, {553, 554, 555, 556, 557, 558}, {559, 560, 561, 562, 563, 564}, {565, 566, 567, 568, 569, 570}, {571, 572, 573, 574, 575, 576}, {577, 578, 579, 580, 581, 582}, {583, 584, 585, 586, 587, 588}, {589, 590, 591, 592, 593, 594}, {595, 596, 597, 598, 599, 600}];
succ =  [{53, 35, 32, 29, 25, 23, 15, 12}, {42, 41, 39, 35, 34, 32, 29, 25, 12}, {54, 53, 44, 43, 42, 39, 38, 30, 28, 14}, {53, 45, 42, 41, 37, 36, 35, 34, 30, 25}, {65, 45, 43, 38, 34, 28, 23, 21}, {65, 52, 47, 45, 43, 36, 31, 16}, {66, 61, 60, 49, 45, 38, 36, 34, 29, 25}, {60, 49, 45, 39, 34, 33, 29, 25}, {53, 45, 41, 38, 36, 35, 23}, {66, 65, 60, 54, 48, 45, 44, 36, 35, 29}, {62, 56, 54, 53, 50, 45, 34, 23}, {100, 72, 69, 66, 65, 56, 55, 54, 52, 49, 45, 44, 43, 36}, {72, 61, 59, 55, 53, 51, 50, 46, 45, 44, 43, 30}, {66, 60, 45, 35, 34, 29}, {64, 61, 60, 57, 56, 52, 51, 49, 43, 39, 34}, {100, 61, 60, 55, 54, 50, 46, 44, 40, 28}, {66, 60, 54, 51, 50, 46, 45, 44, 35, 34}, {100, 73, 54, 48, 47, 45, 44, 42, 36}, {100, 63, 55, 54, 53, 50, 44, 43, 28}, {66, 63, 51, 50, 46, 43, 35, 34}, {72, 69, 62, 61, 56, 54, 53, 52, 51, 49, 48, 44, 39}, {100, 73, 72, 69, 66, 60, 56, 55, 48, 45, 44, 36}, {100, 73, 72, 69, 66, 63, 61, 60, 59, 52, 49, 48, 47, 46, 44}, {100, 99, 73, 72, 69, 66, 61, 57, 54, 52, 49, 36}, {100, 99, 78, 72, 69, 59, 58, 56, 54, 52, 50, 47, 46, 43}, {99, 78, 72, 69, 62, 61, 60, 59, 57, 55, 53, 50, 49, 48, 46}, {100, 99, 72, 64, 63, 59, 57, 56, 51, 49, 48, 47, 45}, {99, 80, 78, 73, 72, 69, 66, 64, 62, 59, 57, 56, 49, 48}, {69, 68, 63, 59, 58, 57, 56, 51, 50, 47, 46}, {99, 98, 97, 81, 80, 78, 70, 69, 66, 63, 57, 56, 52, 49}, {100, 99, 98, 96, 80, 75, 73, 69, 62, 60, 55, 49, 48}, {100, 81, 80, 78, 71, 66, 64, 61, 59, 58, 52, 47}, {99, 78, 71, 69, 68, 59, 58, 56, 53, 48, 47}, {99, 98, 96, 80, 78, 73, 72, 71, 69, 68, 59, 58, 55, 48}, {100, 99, 98, 97, 80, 78, 73, 72, 67, 61, 59, 56, 49}, {68, 67, 63, 59, 58, 51, 50, 46}, {98, 80, 78, 72, 71, 69, 68, 67, 63, 61, 59, 58, 57, 56}, {100, 99, 98, 96, 93, 80, 73, 71, 64, 58, 57, 55, 48}, {100, 99, 97, 81, 78, 71, 68, 67, 66, 63, 59, 50}, {99, 98, 96, 93, 71, 68, 59, 58, 57, 53, 48}, {99, 96, 81, 80, 78, 71, 69, 67, 64, 61, 60, 55}, {98, 81, 80, 77, 74, 72, 70, 69, 67, 63, 61, 58}, {96, 80, 79, 75, 73, 71, 62, 48}, {99, 98, 97, 96, 94, 93, 81, 80, 77, 70, 67, 57}, {98, 95, 94, 89, 81, 80, 79, 78, 75, 70, 68, 67}, {96, 95, 94, 93, 80, 77, 74, 71, 64}, {98, 93, 91, 79, 55}, {97, 95, 94, 92, 89, 81, 77, 74, 70, 67}, {79, 74, 71, 68, 58}, {98, 95, 93, 92, 91, 89, 85, 80, 79, 76, 74, 70}, {97, 96, 90, 85, 81, 78, 77, 76, 74, 71}, {96, 94, 93, 89, 88, 79, 74, 68, 67}, {95, 94, 92, 91, 90, 89, 87, 80, 79, 77, 76, 75}, {93, 92, 89, 79, 75, 70, 67}, {97, 95, 94, 92, 90, 89, 88, 85, 77, 76, 74}, {96, 94, 93, 92, 91, 90, 89, 88, 87, 85, 79, 76}, {95, 92, 90, 89, 79, 76, 75, 74}, {95, 94, 92, 90, 89, 88, 86, 85, 84, 76}, {92, 91, 87, 79, 75, 70}, {94, 93, 92, 90, 89, 87, 86, 84, 76}, {93, 92, 91, 89, 87, 86, 85, 84, 83, 82}, {97, 95, 93, 90, 89, 87, 85, 76}, {96, 95, 92, 87, 83, 82, 75}, {92, 91, 76, 75}, {90, 88, 86, 84, 80, 76}, {94, 93, 84, 76, 74}, {91, 87, 85, 84, 76}, {91, 90, 85, 82, 77}, {89, 88, 76}, {90, 88, 84, 82}, {91, 89, 83, 82}, {93, 86, 83, 82}, {91, 86, 85, 82}, {87, 83, 82}, {88, 85, 84}, {83, 82}, {86, 84}, {93, 88}, {86}, {82}, {87}, {}, {}, {}, {}, {}, {}, {}, {}, {}, {}, {}, {}, {}, {}, {}, {}, {}, {}, {}];
n_opt = 600;
dur = [6, 7, 8, 18, 26, 29, 13, 19, 23, 27, 28, 29, 2, 3, 4, 5, 6, 24, 11, 12, 19, 22, 26, 30, 3, 4, 8, 10, 19, 20, 6, 7, 10, 11, 24, 25, 1, 9, 17, 19, 22, 23, 3, 9, 11, 18, 24, 28, 1, 2, 22, 23, 29, 30, 2, 6, 7, 14, 16, 23, 5, 6, 10, 12, 28, 30, 6, 8, 13, 14, 15, 20, 3, 16, 17, 19, 22, 24, 4, 5, 8, 14, 20, 24, 5, 17, 19, 23, 25, 26, 6, 10, 11, 15, 23, 27, 7, 15, 16, 17, 22, 24, 5, 7, 16, 26, 27, 30, 4, 19, 23, 26, 29, 30, 2, 8, 21, 22, 25, 27, 2, 3, 13, 15, 20, 26, 6, 7, 8, 19, 23, 24, 5, 11, 12, 20, 24, 30, 7, 18, 19, 22, 23, 25, 9, 11, 14, 18, 19, 25, 2, 3, 8, 14, 23, 29, 5, 8, 16, 17, 19, 20, 6, 22, 27, 28, 29, 30, 4, 8, 10, 11, 16, 19, 1, 6, 10, 14, 17, 20, 9, 10, 11, 20, 23, 30, 5, 6, 7, 11, 21, 29, 4, 5, 8, 15, 23, 30, 7, 8, 9, 19, 22, 23, 8, 12, 17, 22, 23, 24, 7, 13, 14, 22, 23, 24, 5, 7, 12, 18, 25, 26, 8, 9, 10, 13, 15, 27, 1, 3, 5, 17, 18, 25, 2, 7, 12, 19, 20, 26, 8, 13, 23, 25, 26, 29, 10, 11, 17, 19, 20, 29, 6, 8, 20, 21, 27, 30, 8, 10, 15, 16, 17, 29, 1, 8, 9, 21, 27, 29, 4, 8, 13, 19, 24, 26, 2, 3, 6, 16, 19, 29, 1, 4, 6, 12, 14, 26, 4, 5, 10, 11, 13, 19, 2, 13, 16, 17, 21, 30, 4, 5, 12, 18, 20, 24, 5, 13, 14, 15, 18, 22, 6, 9, 10, 16, 22, 28, 1, 2, 3, 11, 20, 25, 8, 11, 12, 19, 28, 30, 1, 2, 10, 12, 17, 20, 5, 7, 15, 27, 28, 29, 7, 10, 13, 17, 19, 26, 7, 8, 9, 10, 13, 19, 1, 2, 5, 6, 18, 26, 8, 12, 20, 21, 26, 30, 2, 12, 20, 21, 22, 28, 7, 8, 13, 19, 25, 26, 6, 7, 8, 9, 16, 25, 3, 6, 9, 14, 16, 30, 9, 10, 11, 13, 14, 20, 6, 17, 19, 22, 23, 26, 3, 11, 21, 23, 26, 30, 13, 14, 15, 16, 23, 24, 2, 3, 8, 10, 18, 22, 9, 11, 18, 25, 28, 30, 5, 8, 9, 10, 18, 29, 1, 6, 15, 18, 21, 27, 7, 8, 15, 16, 19, 20, 12, 20, 21, 23, 24, 28, 5, 17, 21, 26, 29, 30, 8, 15, 20, 24, 28, 30, 1, 14, 15, 23, 26, 28, 1, 10, 11, 14, 17, 29, 15, 17, 20, 22, 23, 24, 7, 8, 11, 12, 20, 22, 3, 6, 16, 25, 28, 30, 8, 10, 14, 19, 27, 28, 3, 4, 11, 28, 29, 30, 9, 13, 22, 25, 28, 29, 2, 3, 11, 20, 21, 23, 2, 3, 6, 7, 17, 23, 7, 8, 9, 10, 27, 28, 1, 3, 9, 20, 26, 30, 2, 14, 18, 20, 24, 25, 1, 5, 10, 11, 17, 27, 6, 13, 16, 22, 23, 25, 12, 14, 15, 16, 20, 30, 2, 12, 16, 17, 19, 28, 11, 15, 18, 19, 20, 26, 4, 13, 14, 16, 25, 29, 11, 12, 13, 24, 26, 27, 6, 13, 14, 23, 25, 27, 7, 10, 13, 21, 22, 25, 6, 9, 17, 19, 20, 21];
rreq = [|3, 3, 3, 3, 3, 3, 1, 1, 1, 1, 1, 1, 4, 4, 4, 4, 3, 3, 1, 1, 1, 1, 1, 1, 4, 3, 3, 3, 2, 2, 4, 4, 4, 3, 3, 2, 3, 3, 3, 3, 3, 3, 2, 2, 2, 1, 1, 1, 5, 4, 3, 3, 1, 1, 3, 2, 2, 2, 2, 2, 4, 3, 3, 3, 3, 3, 4, 4, 3, 3, 2, 1, 4, 3, 3, 3, 2, 2, 4, 3, 3, 2, 2, 2, 4, 3, 3, 3, 2, 2, 3, 2, 2, 2, 2, 2, 3, 3, 3, 3, 3, 3, 1, 1, 1, 1, 1, 1, 3, 2, 2, 1, 1, 1, 2, 2, 2, 2, 2, 2, 5, 4, 4, 4, 3, 3, 4, 4, 4, 4, 4, 4, 2, 1, 1, 1, 1, 1, 4, 4, 3, 3, 2, 2, 3, 3, 3, 2, 2, 1, 3, 2, 2, 1, 1, 1, 3, 3, 3, 3, 3, 3, 4, 4, 4, 4, 3, 3, 4, 4, 4, 4, 4, 4, 4, 4, 3, 3, 2, 2, 2, 2, 2, 2, 2, 2, 2, 2, 2, 2, 2, 2, 2, 2, 2, 2, 2, 2, 5, 5, 5, 5, 5, 5, 3, 3, 3, 3, 3, 3, 4, 3, 3, 2, 2, 1, 4, 3, 3, 2, 2, 2, 2, 2, 2, 2, 2, 2, 5, 4, 3, 3, 2, 1, 4, 3, 3, 3, 3, 3, 4, 3, 3, 3, 3, 3, 5, 4, 4, 4, 3, 3, 4, 3, 3, 2, 2, 2, 4, 4, 4, 4, 4, 4, 1, 1, 1, 1, 1, 1, 3, 2, 2, 2, 2, 2, 4, 4, 4, 3, 2, 2, 2, 1, 1, 1, 1, 1, 5, 4, 3, 3, 3, 2, 3, 3, 3, 3, 3, 3, 5, 4, 4, 4, 4, 4, 4, 4, 4, 3, 3, 3, 5, 4, 4, 3, 2, 2, 5, 4, 4, 3, 3, 2, 4, 3, 3, 3, 3, 3, 2, 1, 1, 1, 1, 1, 4, 4, 4, 4, 4, 4, 4, 4, 4, 4, 4, 4, 4, 3, 3, 2, 2, 1, 1, 1, 1, 1, 1, 1, 5, 5, 5, 5, 5, 5, 5, 5, 5, 5, 5, 5, 3, 3, 3, 3, 3, 3, 4, 4, 3, 2, 1, 1, 1, 1, 1, 1, 1, 1, 4, 4, 4, 4, 4, 4, 5, 4, 4, 4, 3, 3, 1, 1, 1, 1, 1, 1, 3, 3, 2, 2, 1, 1, 4, 3, 3, 2, 2, 1, 3, 2, 2, 1, 1, 1, 4, 3, 3, 2, 1, 1, 3, 3, 3, 3, 3, 3, 1, 1, 1, 1, 1, 1, 4, 3, 3, 2, 2, 2, 4, 4, 4, 4, 4, 4, 3, 3, 3, 3, 2, 2, 5, 5, 5, 5, 5, 5, 4, 4, 4, 4, 4, 4, 5, 4, 4, 4, 4, 4, 1, 1, 1, 1, 1, 1, 4, 4, 4, 3, 3, 2, 4, 4, 4, 4, 4, 4, 3, 2, 2, 2, 2, 2, 4, 4, 4, 4, 3, 3, 4, 4, 4, 3, 3, 3, 4, 3, 3, 3, 2, 2, 2, 2, 2, 1, 1, 1, 4, 4, 3, 3, 1, 1, 4, 3, 3, 3, 3, 3, 3, 2, 2, 2, 2, 2, 4, 3, 3, 2, 2, 2, 5, 4, 4, 4, 4, 4, 2, 2, 2, 2, 1, 1, 5, 4, 3, 3, 2, 2, 3, 3, 3, 3, 2, 2, 1, 1, 1, 1, 1, 1, 3, 3, 3, 2, 2, 2, 2, 2, 2, 2, 2, 2, 2, 2, 2, 2, 1, 1
 |3, 3, 3, 2, 2, 1, 4, 4, 4, 3, 2, 2, 2, 1, 1, 1, 1, 1, 4, 3, 3, 2, 1, 1, 5, 4, 3, 3, 2, 2, 2, 2, 2, 2, 2, 2, 4, 4, 4, 3, 2, 2, 2, 2, 2, 1, 1, 1, 5, 4, 4, 3, 3, 3, 3, 3, 3, 3, 2, 2, 5, 5, 5, 5, 5, 5, 3, 2, 2, 1, 1, 1, 4, 4, 4, 4, 4, 4, 3, 2, 2, 1, 1, 1, 2, 2, 2, 2, 2, 2, 5, 4, 4, 4, 3, 3, 4, 4, 4, 4, 4, 4, 5, 4, 3, 3, 3, 2, 2, 2, 2, 2, 2, 2, 5, 4, 4, 4, 4, 4, 4, 4, 4, 4, 4, 4, 4, 4, 4, 3, 2, 2, 3, 2, 2, 2, 2, 2, 3, 2, 2, 2, 1, 1, 5, 3, 3, 2, 1, 1, 2, 1, 1, 1, 1, 1, 1, 1, 1, 1, 1, 1, 2, 2, 2, 2, 2, 2, 4, 3, 3, 2, 2, 1, 1, 1, 1, 1, 1, 1, 1, 1, 1, 1, 1, 1, 4, 4, 4, 3, 3, 3, 5, 5, 5, 5, 5, 5, 1, 1, 1, 1, 1, 1, 5, 4, 4, 3, 3, 2, 3, 3, 3, 3, 3, 3, 4, 3, 3, 3, 2, 2, 4, 4, 4, 4, 4, 4, 2, 2, 2, 1, 1, 1, 4, 4, 4, 4, 4, 4, 3, 2, 2, 2, 1, 1, 4, 3, 3, 3, 1, 1, 4, 3, 3, 2, 2, 2, 4, 3, 3, 3, 3, 3, 5, 4, 3, 3, 2, 1, 2, 2, 2, 2, 2, 2, 5, 4, 4, 3, 3, 3, 4, 4, 4, 3, 3, 3, 1, 1, 1, 1, 1, 1, 5, 5, 5, 5, 5, 5, 4, 4, 4, 4, 3, 3, 5, 5, 5, 5, 5, 5, 1, 1, 1, 1, 1, 1, 3, 2, 2, 2, 2, 2, 4, 4, 4, 4, 3, 3, 3, 3, 3, 3, 3, 3, 3, 3, 3, 3, 2, 2, 2, 1, 1, 1, 1, 1, 5, 5, 5, 5, 5, 5, 4, 3, 3, 3, 2, 2, 3, 3, 3, 3, 3, 3, 3, 3, 3, 3, 3, 3, 3, 2, 2, 1, 1, 1, 5, 4, 4, 3, 3, 2, 4, 3, 3, 3, 3, 3, 4, 4, 4, 4, 4, 4, 5, 4, 4, 3, 3, 3, 4, 3, 3, 2, 2, 2, 3, 3, 3, 3, 3, 3, 5, 4, 4, 4, 4, 4, 3, 3, 3, 3, 3, 3, 4, 4, 4, 4, 4, 4, 2, 2, 2, 1, 1, 1, 4, 3, 2, 2, 2, 1, 4, 4, 4, 4, 4, 4, 2, 1, 1, 1, 1, 1, 4, 4, 4, 3, 3, 2, 4, 3, 3, 3, 3, 3, 2, 2, 2, 2, 1, 1, 4, 4, 4, 4, 4, 4, 5, 4, 3, 3, 3, 2, 2, 2, 2, 1, 1, 1, 2, 2, 2, 2, 2, 2, 5, 4, 4, 4, 4, 4, 1, 1, 1, 1, 1, 1, 5, 4, 4, 3, 3, 2, 3, 3, 3, 3, 2, 2, 5, 4, 3, 3, 2, 2, 4, 3, 3, 3, 3, 3, 4, 3, 3, 2, 2, 2, 4, 3, 3, 3, 2, 2, 4, 4, 4, 4, 4, 4, 4, 3, 3, 2, 2, 2, 3, 3, 3, 3, 3, 3, 4, 4, 3, 2, 2, 1, 3, 3, 3, 3, 3, 3, 4, 3, 3, 2, 2, 1, 3, 3, 3, 3, 3, 3, 4, 3, 3, 2, 2, 1, 4, 4, 4, 4, 4, 4
 |2, 2, 2, 2, 2, 2, 3, 2, 2, 2, 1, 1, 5, 4, 4, 4, 3, 3, 3, 2, 2, 2, 1, 1, 3, 3, 3, 3, 3, 3, 5, 4, 4, 3, 2, 2, 4, 4, 4, 4, 3, 3, 4, 3, 3, 2, 2, 1, 5, 5, 5, 5, 5, 5, 3, 2, 2, 1, 1, 1, 3, 3, 3, 3, 3, 3, 3, 2, 2, 2, 2, 2, 5, 4, 4, 4, 4, 4, 5, 4, 4, 4, 4, 4, 3, 3, 3, 2, 2, 2, 3, 3, 3, 3, 2, 2, 4, 4, 4, 4, 3, 3, 3, 3, 3, 3, 2, 2, 3, 3, 3, 3, 2, 2, 5, 4, 4, 4, 4, 4, 4, 3, 2, 2, 2, 1, 1, 1, 1, 1, 1, 1, 2, 2, 2, 1, 1, 1, 4, 3, 3, 3, 3, 3, 4, 4, 4, 4, 4, 4, 5, 4, 3, 3, 2, 1, 5, 4, 4, 3, 3, 2, 5, 4, 4, 3, 3, 2, 3, 3, 3, 3, 3, 3, 4, 3, 3, 2, 2, 2, 1, 1, 1, 1, 1, 1, 5, 4, 4, 4, 4, 4, 4, 4, 4, 4, 3, 3, 4, 4, 4, 4, 4, 4, 1, 1, 1, 1, 1, 1, 1, 1, 1, 1, 1, 1, 5, 4, 4, 3, 3, 3, 5, 4, 4, 4, 4, 4, 5, 4, 4, 4, 3, 3, 5, 4, 4, 4, 4, 4, 4, 4, 3, 3, 2, 2, 3, 2, 2, 2, 2, 2, 5, 4, 4, 4, 4, 4, 5, 5, 5, 5, 5, 5, 4, 4, 4, 4, 4, 4, 3, 2, 2, 2, 1, 1, 3, 3, 3, 3, 3, 3, 1, 1, 1, 1, 1, 1, 3, 3, 3, 3, 3, 3, 4, 3, 3, 2, 2, 2, 3, 2, 2, 2, 1, 1, 4, 4, 4, 4, 4, 4, 1, 1, 1, 1, 1, 1, 3, 3, 3, 3, 3, 3, 5, 4, 4, 3, 3, 3, 4, 3, 3, 2, 2, 2, 1, 1, 1, 1, 1, 1, 2, 2, 2, 2, 2, 2, 5, 4, 4, 3, 3, 3, 3, 3, 2, 2, 1, 1, 4, 4, 4, 4, 4, 4, 5, 4, 3, 3, 2, 1, 1, 1, 1, 1, 1, 1, 1, 1, 1, 1, 1, 1, 3, 3, 3, 3, 3, 3, 5, 4, 4, 4, 3, 3, 5, 4, 4, 4, 4, 4, 3, 3, 3, 3, 3, 3, 2, 2, 2, 2, 1, 1, 4, 3, 3, 2, 2, 1, 4, 4, 3, 3, 3, 2, 4, 3, 3, 3, 2, 2, 4, 3, 3, 3, 2, 2, 2, 2, 2, 2, 2, 2, 4, 4, 3, 3, 3, 2, 2, 2, 2, 2, 2, 2, 4, 4, 4, 3, 3, 2, 3, 3, 2, 2, 1, 1, 4, 4, 4, 3, 3, 2, 2, 2, 2, 2, 1, 1, 4, 4, 4, 3, 2, 2, 4, 4, 4, 4, 3, 3, 3, 2, 2, 1, 1, 1, 5, 5, 5, 5, 5, 5, 5, 5, 5, 5, 5, 5, 5, 5, 5, 5, 5, 5, 1, 1, 1, 1, 1, 1, 4, 3, 3, 3, 2, 2, 5, 5, 5, 5, 5, 5, 4, 3, 3, 3, 3, 3, 3, 3, 3, 3, 3, 3, 4, 4, 4, 4, 3, 3, 3, 2, 2, 1, 1, 1, 2, 2, 2, 2, 2, 2, 4, 4, 3, 2, 1, 1, 5, 4, 4, 4, 4, 4, 2, 2, 2, 2, 2, 2, 4, 4, 4, 3, 3, 2, 4, 4, 4, 4, 4, 4, 5, 4, 3, 3, 1, 1
 |4, 4, 4, 4, 4, 4, 5, 5, 5, 5, 5, 5, 5, 4, 4, 3, 3, 3, 4, 4, 4, 4, 4, 4, 4, 4, 4, 4, 3, 3, 1, 1, 1, 1, 1, 1, 5, 3, 3, 2, 1, 1, 2, 2, 2, 2, 2, 2, 4, 3, 3, 3, 3, 3, 4, 4, 4, 4, 4, 4, 5, 4, 4, 3, 2, 2, 5, 5, 5, 5, 5, 5, 3, 3, 3, 3, 2, 2, 5, 4, 4, 4, 3, 3, 2, 1, 1, 1, 1, 1, 5, 4, 4, 4, 4, 4, 3, 2, 2, 1, 1, 1, 2, 2, 2, 2, 2, 2, 4, 3, 3, 3, 3, 3, 3, 2, 2, 2, 2, 2, 3, 2, 2, 1, 1, 1, 4, 3, 3, 3, 3, 3, 5, 4, 3, 2, 2, 1, 5, 4, 4, 3, 3, 2, 4, 3, 3, 3, 3, 3, 3, 3, 3, 3, 3, 3, 2, 2, 2, 2, 1, 1, 1, 1, 1, 1, 1, 1, 4, 4, 4, 4, 4, 4, 2, 2, 2, 2, 2, 2, 2, 2, 2, 2, 1, 1, 5, 4, 3, 3, 2, 1, 4, 3, 3, 3, 3, 3, 2, 2, 2, 2, 2, 2, 5, 3, 3, 3, 2, 1, 5, 4, 3, 3, 2, 1, 2, 1, 1, 1, 1, 1, 2, 2, 2, 2, 2, 2, 4, 4, 4, 4, 4, 4, 2, 2, 2, 2, 1, 1, 1, 1, 1, 1, 1, 1, 4, 3, 3, 2, 2, 1, 5, 4, 3, 3, 2, 1, 4, 4, 4, 4, 4, 4, 2, 2, 2, 1, 1, 1, 4, 3, 3, 2, 2, 2, 1, 1, 1, 1, 1, 1, 5, 4, 4, 3, 3, 3, 1, 1, 1, 1, 1, 1, 4, 3, 3, 3, 2, 2, 2, 1, 1, 1, 1, 1, 3, 3, 3, 3, 3, 3, 4, 4, 4, 4, 4, 4, 4, 4, 4, 3, 3, 3, 3, 2, 2, 2, 2, 2, 5, 4, 4, 4, 4, 4, 5, 5, 5, 5, 5, 5, 3, 2, 2, 2, 1, 1, 2, 2, 2, 2, 2, 2, 3, 2, 2, 2, 2, 2, 4, 4, 4, 4, 3, 3, 2, 1, 1, 1, 1, 1, 2, 2, 2, 2, 2, 2, 3, 3, 3, 3, 3, 3, 3, 2, 2, 2, 2, 2, 4, 4, 4, 4, 4, 4, 4, 4, 4, 4, 4, 4, 3, 2, 2, 2, 2, 2, 1, 1, 1, 1, 1, 1, 4, 4, 3, 3, 2, 2, 1, 1, 1, 1, 1, 1, 3, 2, 2, 2, 2, 2, 5, 3, 3, 2, 2, 1, 3, 3, 3, 3, 3, 3, 5, 4, 4, 4, 4, 4, 4, 4, 4, 4, 4, 4, 3, 3, 3, 3, 3, 3, 3, 3, 3, 3, 2, 2, 2, 2, 2, 2, 2, 2, 4, 4, 4, 4, 4, 4, 4, 4, 4, 4, 4, 4, 4, 4, 4, 4, 4, 4, 3, 3, 3, 2, 2, 1, 5, 4, 4, 4, 4, 4, 4, 3, 3, 3, 3, 3, 4, 4, 4, 4, 4, 4, 3, 3, 3, 3, 2, 2, 1, 1, 1, 1, 1, 1, 4, 4, 3, 3, 2, 1, 1, 1, 1, 1, 1, 1, 4, 4, 4, 4, 4, 4, 3, 3, 2, 2, 2, 1, 3, 3, 3, 3, 3, 3, 3, 3, 3, 3, 3, 3, 5, 5, 5, 5, 5, 5, 5, 4, 4, 4, 4, 4, 3, 3, 3, 3, 3, 3, 5, 4, 4, 4, 4, 4, 5, 4, 4, 4, 3, 3, 2, 1, 1, 1, 1, 1
 |20, 19, 18, 13, 11, 10, 25, 24, 24, 24, 24, 24, 29, 28, 27, 26, 24, 22, 16, 14, 12, 10, 9, 9, 25, 23, 22, 19, 17, 16, 16, 12, 10, 7, 6, 3, 20, 15, 12, 9, 6, 5, 12, 9, 9, 7, 6, 5, 15, 12, 10, 7, 6, 3, 11, 10, 10, 9, 8, 8, 16, 14, 14, 12, 11, 11, 29, 28, 28, 27, 27, 26, 21, 21, 21, 21, 21, 21, 29, 27, 27, 26, 24, 23, 23, 23, 23, 23, 23, 23, 13, 13, 9, 8, 5, 3, 26, 23, 17, 15, 11, 9, 29, 26, 25, 24, 22, 20, 9, 9, 9, 8, 7, 7, 13, 12, 11, 11, 10, 10, 23, 19, 17, 10, 10, 2, 22, 19, 19, 15, 9, 7, 19, 19, 19, 19, 19, 19, 9, 7, 7, 7, 5, 5, 25, 22, 21, 18, 18, 16, 26, 23, 14, 12, 7, 2, 23, 23, 19, 17, 16, 13, 8, 7, 6, 6, 6, 5, 24, 23, 21, 19, 18, 16, 28, 26, 25, 25, 23, 20, 17, 14, 14, 10, 8, 5, 23, 23, 23, 23, 23, 23, 17, 17, 17, 17, 17, 17, 26, 18, 16, 13, 8, 6, 14, 14, 12, 11, 10, 9, 26, 24, 24, 24, 23, 22, 28, 27, 27, 25, 24, 23, 21, 19, 18, 16, 14, 13, 23, 21, 21, 20, 20, 19, 10, 9, 9, 8, 7, 7, 18, 17, 12, 12, 9, 5, 11, 11, 9, 7, 5, 2, 13, 10, 9, 8, 5, 3, 14, 12, 11, 8, 8, 6, 12, 10, 6, 5, 4, 1, 19, 18, 16, 16, 12, 11, 26, 24, 19, 14, 13, 7, 27, 24, 24, 18, 18, 13, 24, 24, 24, 24, 24, 24, 29, 25, 21, 18, 14, 14, 28, 28, 28, 28, 28, 28, 18, 16, 16, 15, 15, 14, 23, 23, 23, 23, 23, 23, 11, 11, 11, 11, 11, 11, 22, 20, 15, 13, 11, 7, 17, 16, 16, 14, 12, 12, 17, 17, 16, 14, 13, 13, 11, 10, 10, 7, 6, 4, 17, 16, 15, 15, 14, 14, 14, 14, 13, 13, 12, 12, 27, 27, 27, 27, 27, 27, 21, 21, 20, 20, 19, 18, 27, 23, 23, 19, 17, 15, 29, 27, 25, 24, 23, 20, 29, 28, 28, 28, 28, 28, 12, 10, 10, 8, 5, 5, 17, 15, 14, 14, 12, 12, 28, 25, 23, 22, 22, 19, 25, 19, 13, 11, 8, 5, 18, 14, 13, 10, 7, 4, 29, 22, 16, 13, 8, 6, 26, 26, 25, 23, 22, 22, 8, 7, 7, 7, 6, 6, 21, 20, 20, 20, 20, 20, 28, 27, 25, 25, 23, 21, 29, 22, 18, 14, 13, 9, 27, 24, 24, 21, 20, 20, 28, 28, 26, 26, 24, 24, 22, 20, 16, 10, 9, 5, 11, 10, 7, 7, 5, 2, 12, 9, 7, 6, 4, 3, 15, 13, 12, 12, 11, 10, 15, 10, 8, 6, 3, 3, 29, 21, 18, 11, 6, 4, 27, 21, 19, 13, 7, 5, 15, 15, 14, 12, 11, 10, 21, 19, 19, 17, 17, 16, 22, 17, 16, 13, 7, 6, 24, 24, 24, 24, 24, 24, 11, 9, 8, 6, 4, 3, 15, 11, 10, 7, 6, 5, 27, 26, 25, 24, 21, 20, 6, 5, 5, 4, 4, 4, 14, 13, 11, 7, 5, 1, 22, 21, 20, 19, 19, 18, 14, 11, 11, 8, 8, 7, 19, 19, 19, 18, 18, 17, 11, 11, 11, 11, 10, 10, 15, 13, 11, 9, 6, 5, 21, 16, 15, 9, 7, 3
 |23, 23, 21, 20, 20, 18, 28, 26, 24, 24, 22, 22, 26, 22, 20, 18, 14, 13, 15, 14, 13, 12, 11, 11, 19, 19, 18, 16, 14, 14, 30, 28, 27, 26, 26, 25, 24, 21, 19, 16, 15, 13, 18, 17, 13, 10, 8, 6, 11, 9, 8, 8, 6, 5, 24, 22, 20, 17, 12, 12, 29, 28, 24, 22, 20, 20, 16, 16, 15, 13, 13, 12, 25, 21, 17, 11, 6, 6, 23, 22, 22, 20, 20, 19, 16, 16, 16, 15, 15, 14, 10, 9, 9, 8, 5, 5, 27, 20, 17, 12, 7, 3, 13, 12, 11, 10, 9, 8, 26, 22, 20, 14, 11, 9, 21, 18, 15, 13, 11, 10, 27, 23, 17, 12, 8, 5, 25, 21, 17, 15, 10, 7, 20, 18, 16, 15, 11, 11, 17, 15, 14, 11, 10, 8, 8, 8, 8, 8, 7, 7, 18, 16, 13, 13, 8, 6, 29, 29, 29, 28, 28, 27, 21, 16, 15, 11, 9, 5, 5, 5, 5, 5, 5, 5, 23, 23, 23, 23, 22, 22, 25, 22, 19, 15, 13, 11, 17, 16, 13, 11, 9, 7, 20, 18, 17, 16, 15, 15, 26, 26, 25, 25, 24, 24, 27, 24, 23, 20, 19, 16, 18, 16, 15, 9, 8, 3, 8, 7, 6, 4, 4, 3, 29, 25, 24, 19, 18, 13, 23, 20, 18, 12, 10, 9, 22, 21, 20, 19, 17, 15, 25, 23, 23, 22, 21, 20, 29, 28, 28, 28, 28, 28, 24, 24, 24, 23, 23, 22, 18, 18, 13, 12, 8, 8, 19, 19, 18, 18, 18, 17, 26, 24, 21, 20, 19, 17, 17, 16, 13, 13, 10, 8, 14, 12, 11, 8, 6, 5, 8, 8, 8, 8, 7, 7, 17, 16, 16, 15, 15, 14, 27, 22, 18, 16, 12, 9, 10, 9, 7, 6, 5, 5, 25, 23, 18, 16, 13, 9, 4, 4, 4, 3, 3, 2, 25, 25, 25, 24, 23, 23, 23, 20, 18, 16, 13, 10, 21, 17, 12, 8, 8, 2, 4, 4, 4, 4, 4, 4, 13, 10, 9, 6, 5, 2, 17, 17, 17, 16, 16, 15, 25, 25, 24, 22, 21, 21, 19, 19, 19, 19, 18, 18, 27, 22, 16, 13, 9, 2, 5, 5, 5, 5, 5, 5, 18, 17, 17, 16, 16, 16, 16, 14, 13, 13, 12, 10, 19, 16, 16, 13, 13, 11, 25, 23, 23, 21, 20, 20, 9, 8, 8, 7, 4, 3, 14, 12, 12, 10, 10, 9, 2, 2, 2, 2, 1, 1, 14, 13, 12, 12, 12, 11, 21, 19, 18, 17, 16, 16, 19, 18, 18, 17, 17, 17, 30, 22, 17, 14, 9, 6, 16, 16, 13, 7, 7, 2, 13, 12, 11, 10, 9, 8, 13, 13, 13, 13, 13, 13, 19, 15, 14, 11, 6, 5, 18, 15, 12, 9, 8, 3, 18, 18, 18, 18, 17, 17, 20, 19, 19, 19, 19, 19, 20, 16, 14, 10, 7, 5, 21, 17, 15, 13, 5, 5, 13, 12, 12, 12, 11, 11, 24, 22, 21, 21, 20, 19, 13, 13, 11, 11, 9, 9, 6, 5, 5, 4, 2, 2, 25, 20, 18, 15, 10, 6, 27, 26, 26, 26, 26, 26, 26, 24, 20, 18, 14, 12, 21, 21, 21, 21, 21, 21, 28, 27, 26, 25, 24, 24, 19, 17, 16, 14, 13, 10, 18, 14, 11, 9, 6, 3, 18, 17, 16, 14, 12, 9, 4, 4, 4, 3, 3, 2, 25, 23, 22, 21, 20, 18, 17, 17, 15, 12, 12, 10, 22, 22, 22, 22, 22, 22
 |6, 6, 5, 3, 3, 2, 16, 16, 16, 16, 16, 16, 27, 27, 27, 26, 25, 25, 17, 15, 13, 12, 12, 9, 28, 23, 21, 17, 16, 10, 19, 15, 15, 13, 9, 9, 25, 21, 21, 16, 13, 9, 13, 13, 11, 11, 9, 8, 24, 22, 19, 17, 14, 9, 27, 23, 18, 15, 12, 10, 24, 22, 18, 13, 6, 3, 9, 9, 7, 7, 6, 5, 24, 22, 20, 16, 15, 11, 28, 24, 21, 20, 19, 17, 24, 21, 19, 14, 6, 3, 2, 1, 1, 1, 1, 1, 26, 24, 23, 23, 22, 21, 6, 6, 6, 6, 6, 6, 9, 9, 9, 9, 9, 9, 17, 11, 10, 8, 5, 2, 21, 19, 18, 16, 15, 14, 18, 16, 16, 13, 13, 10, 13, 13, 12, 12, 10, 10, 27, 27, 27, 27, 27, 27, 18, 18, 17, 17, 16, 16, 12, 12, 12, 12, 12, 12, 18, 15, 13, 11, 7, 5, 15, 13, 13, 12, 11, 11, 23, 23, 22, 20, 19, 19, 4, 4, 3, 2, 2, 1, 16, 16, 12, 11, 9, 6, 18, 15, 14, 11, 10, 9, 24, 23, 19, 14, 12, 9, 17, 14, 12, 11, 8, 7, 12, 11, 11, 11, 10, 9, 20, 19, 19, 18, 16, 16, 20, 15, 15, 8, 7, 4, 12, 12, 12, 12, 12, 12, 15, 15, 11, 8, 4, 1, 24, 23, 22, 22, 20, 19, 15, 14, 12, 10, 10, 9, 24, 20, 17, 12, 5, 5, 19, 18, 14, 14, 12, 10, 10, 10, 9, 8, 6, 6, 29, 28, 28, 28, 28, 28, 20, 19, 16, 15, 12, 12, 17, 16, 16, 15, 13, 12, 4, 4, 3, 3, 2, 2, 27, 22, 21, 19, 15, 12, 26, 23, 19, 14, 7, 5, 22, 17, 16, 13, 8, 4, 26, 23, 22, 19, 17, 15, 18, 18, 18, 18, 18, 18, 26, 21, 18, 13, 12, 6, 23, 22, 22, 22, 22, 22, 26, 25, 19, 14, 12, 6, 23, 22, 22, 21, 20, 20, 16, 14, 11, 10, 9, 6, 17, 15, 15, 14, 13, 13, 25, 25, 24, 23, 21, 21, 23, 19, 19, 16, 11, 8, 26, 19, 16, 14, 7, 5, 2, 2, 2, 2, 2, 2, 13, 13, 12, 11, 10, 10, 28, 25, 24, 24, 20, 20, 27, 24, 18, 13, 11, 5, 17, 16, 13, 12, 9, 6, 21, 19, 17, 16, 15, 14, 21, 20, 15, 15, 10, 9, 19, 14, 14, 9, 4, 1, 26, 26, 25, 23, 23, 22, 11, 11, 11, 10, 9, 9, 17, 15, 14, 12, 8, 6, 7, 6, 4, 4, 3, 1, 29, 24, 22, 20, 16, 14, 26, 24, 24, 19, 17, 17, 24, 20, 16, 13, 9, 6, 21, 19, 18, 18, 16, 16, 13, 12, 12, 10, 9, 9, 18, 16, 13, 12, 9, 8, 14, 11, 10, 8, 7, 6, 17, 15, 12, 10, 8, 7, 11, 10, 9, 9, 7, 7, 10, 8, 6, 5, 2, 2, 28, 23, 20, 17, 16, 12, 24, 22, 20, 20, 18, 17, 25, 24, 21, 16, 15, 12, 5, 4, 3, 3, 3, 2, 16, 13, 12, 11, 9, 8, 16, 16, 14, 11, 11, 9, 21, 19, 15, 11, 8, 7, 16, 14, 12, 8, 8, 5, 28, 27, 27, 27, 26, 26, 22, 18, 17, 16, 14, 11, 13, 13, 10, 9, 6, 5, 23, 18, 16, 13, 8, 8, 20, 19, 17, 17, 16, 14, 13, 10, 9, 7, 7, 4, 25, 24, 24, 24, 24, 24, 8, 8, 6, 6, 5, 4
 |16, 16, 15, 13, 12, 11, 13, 12, 12, 12, 12, 11, 4, 3, 3, 2, 2, 1, 21, 21, 19, 16, 15, 12, 18, 17, 14, 12, 9, 6, 25, 22, 20, 19, 15, 11, 18, 15, 13, 10, 8, 6, 13, 13, 11, 10, 10, 8, 23, 23, 18, 16, 15, 10, 8, 8, 8, 8, 8, 8, 9, 7, 7, 5, 5, 3, 24, 22, 19, 18, 13, 13, 29, 28, 27, 26, 25, 23, 22, 21, 21, 19, 17, 16, 30, 23, 21, 17, 14, 8, 23, 21, 17, 16, 9, 7, 20, 19, 18, 17, 16, 15, 12, 11, 11, 10, 9, 8, 20, 16, 15, 14, 10, 9, 14, 14, 10, 10, 7, 4, 27, 26, 24, 23, 23, 20, 20, 17, 16, 13, 11, 11, 25, 22, 20, 17, 15, 14, 17, 14, 13, 9, 7, 6, 28, 25, 24, 23, 20, 16, 24, 24, 24, 23, 22, 22, 28, 24, 23, 21, 19, 17, 21, 19, 17, 16, 15, 14, 24, 19, 14, 13, 9, 3, 23, 19, 18, 15, 13, 11, 24, 22, 22, 21, 21, 20, 14, 14, 14, 13, 13, 13, 22, 20, 15, 12, 9, 8, 27, 23, 21, 17, 14, 6, 25, 23, 21, 15, 13, 9, 12, 10, 9, 7, 4, 3, 7, 5, 5, 4, 2, 2, 19, 19, 15, 10, 8, 1, 20, 19, 18, 17, 16, 16, 21, 20, 18, 16, 12, 11, 28, 22, 20, 17, 15, 12, 19, 19, 18, 18, 17, 17, 29, 27, 23, 20, 18, 16, 27, 27, 27, 27, 27, 27, 27, 24, 22, 21, 18, 15, 11, 10, 10, 10, 9, 9, 16, 16, 15, 15, 15, 14, 24, 23, 14, 13, 7, 3, 26, 21, 17, 16, 14, 9, 26, 26, 26, 26, 26, 26, 6, 5, 4, 3, 2, 2, 17, 16, 14, 14, 13, 12, 3, 3, 3, 3, 3, 3, 27, 23, 18, 16, 11, 9, 27, 27, 27, 27, 27, 27, 6, 5, 5, 5, 4, 4, 12, 11, 10, 10, 7, 7, 29, 27, 27, 26, 24, 24, 4, 4, 4, 4, 4, 4, 17, 14, 13, 10, 5, 4, 26, 23, 20, 18, 13, 12, 21, 20, 20, 19, 18, 16, 15, 15, 13, 12, 11, 10, 24, 21, 16, 12, 11, 8, 25, 21, 17, 15, 14, 10, 28, 20, 17, 15, 13, 6, 18, 12, 11, 9, 3, 3, 10, 10, 8, 8, 7, 6, 28, 24, 20, 19, 15, 10, 13, 12, 10, 10, 9, 8, 19, 17, 15, 12, 8, 4, 28, 26, 26, 24, 21, 20, 11, 10, 9, 7, 6, 4, 11, 10, 10, 10, 10, 10, 8, 8, 8, 7, 7, 7, 12, 9, 9, 5, 3, 1, 25, 23, 20, 18, 17, 16, 15, 14, 13, 12, 12, 10, 6, 6, 6, 6, 6, 6, 26, 23, 21, 21, 19, 16, 15, 14, 14, 12, 12, 10, 15, 13, 12, 10, 9, 9, 14, 14, 14, 13, 12, 12, 9, 7, 7, 5, 4, 3, 13, 12, 10, 7, 6, 3, 23, 23, 23, 23, 22, 22, 25, 23, 19, 17, 9, 8, 15, 12, 12, 11, 7, 7, 14, 14, 11, 11, 9, 7, 14, 13, 12, 9, 8, 6, 14, 13, 10, 8, 7, 3, 15, 13, 10, 9, 7, 5, 13, 13, 13, 13, 12, 11, 29, 28, 27, 27, 26, 25, 8, 8, 6, 5, 4, 3, 25, 23, 21, 20, 17, 17, 28, 28, 28, 28, 28, 28, 12, 10, 9, 7, 6, 4, 26, 26, 25, 24, 22, 22, 26, 26, 26, 26, 26, 26|];